data/lp_files/pEFS/40_0.lp
\ Model foo
\ LP format - for model browsing. Use MPS format to capture full model detail.
Minimize
  z
Subject To
 allocateEach[1]: x[1,1] + x[2,1] = 1
 allocateEach[2]: x[1,2] + x[2,2] = 1
 allocateEach[3]: x[1,3] + x[2,3] = 1
 allocateEach[4]: x[1,4] + x[2,4] = 1
 allocateEach[5]: x[1,5] + x[2,5] = 1
 allocateEach[6]: x[1,6] + x[2,6] = 1
 allocateEach[7]: x[1,7] + x[2,7] = 1
 allocateEach[8]: x[1,8] + x[2,8] = 1
 allocateEach[9]: x[1,9] + x[2,9] = 1
 allocateEach[10]: x[1,10] + x[2,10] = 1
 allocateEach[11]: x[1,11] + x[2,11] = 1
 allocateEach[12]: x[1,12] + x[2,12] = 1
 allocateEach[13]: x[1,13] + x[2,13] = 1
 allocateEach[14]: x[1,14] + x[2,14] = 1
 allocateEach[15]: x[1,15] + x[2,15] = 1
 allocateEach[16]: x[1,16] + x[2,16] = 1
 allocateEach[17]: x[1,17] + x[2,17] = 1
 allocateEach[18]: x[1,18] + x[2,18] = 1
 allocateEach[19]: x[1,19] + x[2,19] = 1
 allocateEach[20]: x[1,20] + x[2,20] = 1
 allocateAllCash: cashProportion[1] + cashProportion[2] = 1
 findWorstP[1,2]: z + 0.00430059434213808 cashProportion[1]
   - 0.00430059434213808 cashProportion[2] + 0.0214857693333219 x[1,1]
   + 0.00338026715292053 x[1,2] + 0.030740648357603 x[1,3]
   + 0.0334328204157815 x[1,4] + 0.0666592123031403 x[1,5]
   + 0.0258035660528285 x[1,6] + 0.0455088893285052 x[1,7]
   + 0.0123771105166734 x[1,8] + 0.0802318880469281 x[1,9]
   + 0.0573527261467535 x[1,10] + 0.0526392747477701 x[1,11]
   + 0.0782192098948074 x[1,12] + 0.0737465917789838 x[1,13]
   + 0.0704093305694847 x[1,14] + 0.00301041603949666 x[1,15]
   + 0.0572839166372793 x[1,16] + 0.0488805552927415 x[1,17]
   + 0.0798362333674514 x[1,18] + 0.0804727213300878 x[1,19]
   + 0.0742282583453033 x[1,20] - 0.0214857693333219 x[2,1]
   - 0.00338026715292053 x[2,2] - 0.030740648357603 x[2,3]
   - 0.0334328204157815 x[2,4] - 0.0666592123031403 x[2,5]
   - 0.0258035660528285 x[2,6] - 0.0455088893285052 x[2,7]
   - 0.0123771105166734 x[2,8] - 0.0802318880469281 x[2,9]
   - 0.0573527261467535 x[2,10] - 0.0526392747477701 x[2,11]
   - 0.0782192098948074 x[2,12] - 0.0737465917789838 x[2,13]
   - 0.0704093305694847 x[2,14] - 0.00301041603949666 x[2,15]
   - 0.0572839166372793 x[2,16] - 0.0488805552927415 x[2,17]
   - 0.0798362333674514 x[2,18] - 0.0804727213300878 x[2,19]
   - 0.0742282583453033 x[2,20] >= 0
 findWorstP[2,1]: z - 0.00529061339371687 cashProportion[1]
   + 0.00529061339371687 cashProportion[2] - 0.00803115113166221 x[1,1]
   - 0.0210883849873554 x[1,2] - 0.1016009396129388 x[1,3]
   - 0.0201889807104236 x[1,4] - 0.0771900494143291 x[1,5]
   - 0.0673918334091655 x[1,6] - 0.0394891383707027 x[1,7]
   - 0.0679949633360492 x[1,8] - 0.060355317595522 x[1,9]
   - 0.0869988466462802 x[1,10] - 0.0507369824457448 x[1,11]
   - 0.0787983958860191 x[1,12] - 0.0463563545557472 x[1,13]
   - 0.0608632164813189 x[1,14] - 0.0683864687271842 x[1,15]
   - 0.00156602156454019 x[1,16] - 0.0203582803390225 x[1,17]
   - 0.0139778005862 x[1,18] - 0.0522500978763478 x[1,19]
   - 0.0510861629297301 x[1,20] + 0.00803115113166221 x[2,1]
   + 0.0210883849873554 x[2,2] + 0.1016009396129388 x[2,3]
   + 0.0201889807104236 x[2,4] + 0.0771900494143291 x[2,5]
   + 0.0673918334091655 x[2,6] + 0.0394891383707027 x[2,7]
   + 0.0679949633360492 x[2,8] + 0.060355317595522 x[2,9]
   + 0.0869988466462802 x[2,10] + 0.0507369824457448 x[2,11]
   + 0.0787983958860191 x[2,12] + 0.0463563545557472 x[2,13]
   + 0.0608632164813189 x[2,14] + 0.0683864687271842 x[2,15]
   + 0.00156602156454019 x[2,16] + 0.0203582803390225 x[2,17]
   + 0.0139778005862 x[2,18] + 0.0522500978763478 x[2,19]
   + 0.0510861629297301 x[2,20] >= 0
Bounds
 z <= 1
 -infinity <= cashProportion[1] <= 1
 -infinity <= cashProportion[2] <= 1
Binaries
 x[1,1] x[1,2] x[1,3] x[1,4] x[1,5] x[1,6] x[1,7] x[1,8] x[1,9] x[1,10]
 x[1,11] x[1,12] x[1,13] x[1,14] x[1,15] x[1,16] x[1,17] x[1,18] x[1,19]
 x[1,20] x[2,1] x[2,2] x[2,3] x[2,4] x[2,5] x[2,6] x[2,7] x[2,8] x[2,9]
 x[2,10] x[2,11] x[2,12] x[2,13] x[2,14] x[2,15] x[2,16] x[2,17] x[2,18]
 x[2,19] x[2,20]
End
