data/mps_files/q3/40_0.mps
NAME foo
ROWS
 N  OBJ
 E  allocateEach[1]
 E  allocateEach[2]
 E  allocateEach[3]
 E  allocateEach[4]
 E  allocateEach[5]
 E  allocateEach[6]
 E  allocateEach[7]
 E  allocateEach[8]
 E  allocateEach[9]
 E  allocateEach[10]
 E  allocateEach[11]
 E  allocateEach[12]
 E  allocateEach[13]
 E  allocateEach[14]
 E  allocateEach[15]
 E  allocateEach[16]
 E  allocateEach[17]
 E  allocateEach[18]
 E  allocateEach[19]
 E  allocateEach[20]
 E  allocateAllCash
 G  findWorstP[1,2]
 G  findWorstP[2,1]
COLUMNS
    z         OBJ       1
    z         findWorstP[1,2]  1
    z         findWorstP[2,1]  1
    cashProportion[1]  allocateAllCash  1
    cashProportion[1]  findWorstP[1,2]  4.3005943421380831e-03
    cashProportion[1]  findWorstP[2,1]  -5.2906133937168694e-03
    cashProportion[2]  allocateAllCash  1
    cashProportion[2]  findWorstP[1,2]  -4.3005943421380831e-03
    cashProportion[2]  findWorstP[2,1]  5.2906133937168694e-03
    MARKER    'MARKER'                 'INTORG'
    x[1,1]    allocateEach[1]  1
    x[1,1]    findWorstP[1,2]  2.1485769333321861e-02
    x[1,1]    findWorstP[2,1]  -8.0311511316622074e-03
    x[1,2]    allocateEach[2]  1
    x[1,2]    findWorstP[1,2]  3.3802671529205336e-03
    x[1,2]    findWorstP[2,1]  -2.1088384987355442e-02
    x[1,3]    allocateEach[3]  1
    x[1,3]    findWorstP[1,2]  3.0740648357603019e-02
    x[1,3]    findWorstP[2,1]  -1.0160093961293876e-01
    x[1,4]    allocateEach[4]  1
    x[1,4]    findWorstP[1,2]  3.3432820415781460e-02
    x[1,4]    findWorstP[2,1]  -2.0188980710423573e-02
    x[1,5]    allocateEach[5]  1
    x[1,5]    findWorstP[1,2]  6.6659212303140286e-02
    x[1,5]    findWorstP[2,1]  -7.7190049414329123e-02
    x[1,6]    allocateEach[6]  1
    x[1,6]    findWorstP[1,2]  0.0258035660528285
    x[1,6]    findWorstP[2,1]  -6.7391833409165477e-02
    x[1,7]    allocateEach[7]  1
    x[1,7]    findWorstP[1,2]  0.0455088893285052
    x[1,7]    findWorstP[2,1]  -3.9489138370702712e-02
    x[1,8]    allocateEach[8]  1
    x[1,8]    findWorstP[1,2]  1.2377110516673404e-02
    x[1,8]    findWorstP[2,1]  -0.0679949633360492
    x[1,9]    allocateEach[9]  1
    x[1,9]    findWorstP[1,2]  8.0231888046928074e-02
    x[1,9]    findWorstP[2,1]  -6.0355317595522047e-02
    x[1,10]   allocateEach[10]  1
    x[1,10]   findWorstP[1,2]  5.7352726146753470e-02
    x[1,10]   findWorstP[2,1]  -0.0869988466462802
    x[1,11]   allocateEach[11]  1
    x[1,11]   findWorstP[1,2]  5.2639274747770137e-02
    x[1,11]   findWorstP[2,1]  -5.0736982445744774e-02
    x[1,12]   allocateEach[12]  1
    x[1,12]   findWorstP[1,2]  7.8219209894807448e-02
    x[1,12]   findWorstP[2,1]  -7.8798395886019057e-02
    x[1,13]   allocateEach[13]  1
    x[1,13]   findWorstP[1,2]  7.3746591778983850e-02
    x[1,13]   findWorstP[2,1]  -4.6356354555747208e-02
    x[1,14]   allocateEach[14]  1
    x[1,14]   findWorstP[1,2]  0.0704093305694847
    x[1,14]   findWorstP[2,1]  -6.0863216481318864e-02
    x[1,15]   allocateEach[15]  1
    x[1,15]   findWorstP[1,2]  3.0104160394966582e-03
    x[1,15]   findWorstP[2,1]  -6.8386468727184249e-02
    x[1,16]   allocateEach[16]  1
    x[1,16]   findWorstP[1,2]  5.7283916637279268e-02
    x[1,16]   findWorstP[2,1]  -1.5660215645401934e-03
    x[1,17]   allocateEach[17]  1
    x[1,17]   findWorstP[1,2]  4.8880555292741455e-02
    x[1,17]   findWorstP[2,1]  -2.0358280339022511e-02
    x[1,18]   allocateEach[18]  1
    x[1,18]   findWorstP[1,2]  7.9836233367451381e-02
    x[1,18]   findWorstP[2,1]  -1.3977800586199967e-02
    x[1,19]   allocateEach[19]  1
    x[1,19]   findWorstP[1,2]  8.0472721330087815e-02
    x[1,19]   findWorstP[2,1]  -0.0522500978763478
    x[1,20]   allocateEach[20]  1
    x[1,20]   findWorstP[1,2]  7.4228258345303319e-02
    x[1,20]   findWorstP[2,1]  -5.1086162929730089e-02
    x[2,1]    allocateEach[1]  1
    x[2,1]    findWorstP[1,2]  -2.1485769333321861e-02
    x[2,1]    findWorstP[2,1]  8.0311511316622074e-03
    x[2,2]    allocateEach[2]  1
    x[2,2]    findWorstP[1,2]  -3.3802671529205336e-03
    x[2,2]    findWorstP[2,1]  2.1088384987355442e-02
    x[2,3]    allocateEach[3]  1
    x[2,3]    findWorstP[1,2]  -3.0740648357603019e-02
    x[2,3]    findWorstP[2,1]  1.0160093961293876e-01
    x[2,4]    allocateEach[4]  1
    x[2,4]    findWorstP[1,2]  -3.3432820415781460e-02
    x[2,4]    findWorstP[2,1]  2.0188980710423573e-02
    x[2,5]    allocateEach[5]  1
    x[2,5]    findWorstP[1,2]  -6.6659212303140286e-02
    x[2,5]    findWorstP[2,1]  7.7190049414329123e-02
    x[2,6]    allocateEach[6]  1
    x[2,6]    findWorstP[1,2]  -0.0258035660528285
    x[2,6]    findWorstP[2,1]  6.7391833409165477e-02
    x[2,7]    allocateEach[7]  1
    x[2,7]    findWorstP[1,2]  -0.0455088893285052
    x[2,7]    findWorstP[2,1]  3.9489138370702712e-02
    x[2,8]    allocateEach[8]  1
    x[2,8]    findWorstP[1,2]  -1.2377110516673404e-02
    x[2,8]    findWorstP[2,1]  0.0679949633360492
    x[2,9]    allocateEach[9]  1
    x[2,9]    findWorstP[1,2]  -8.0231888046928074e-02
    x[2,9]    findWorstP[2,1]  6.0355317595522047e-02
    x[2,10]   allocateEach[10]  1
    x[2,10]   findWorstP[1,2]  -5.7352726146753470e-02
    x[2,10]   findWorstP[2,1]  0.0869988466462802
    x[2,11]   allocateEach[11]  1
    x[2,11]   findWorstP[1,2]  -5.2639274747770137e-02
    x[2,11]   findWorstP[2,1]  5.0736982445744774e-02
    x[2,12]   allocateEach[12]  1
    x[2,12]   findWorstP[1,2]  -7.8219209894807448e-02
    x[2,12]   findWorstP[2,1]  7.8798395886019057e-02
    x[2,13]   allocateEach[13]  1
    x[2,13]   findWorstP[1,2]  -7.3746591778983850e-02
    x[2,13]   findWorstP[2,1]  4.6356354555747208e-02
    x[2,14]   allocateEach[14]  1
    x[2,14]   findWorstP[1,2]  -0.0704093305694847
    x[2,14]   findWorstP[2,1]  6.0863216481318864e-02
    x[2,15]   allocateEach[15]  1
    x[2,15]   findWorstP[1,2]  -3.0104160394966582e-03
    x[2,15]   findWorstP[2,1]  6.8386468727184249e-02
    x[2,16]   allocateEach[16]  1
    x[2,16]   findWorstP[1,2]  -5.7283916637279268e-02
    x[2,16]   findWorstP[2,1]  1.5660215645401934e-03
    x[2,17]   allocateEach[17]  1
    x[2,17]   findWorstP[1,2]  -4.8880555292741455e-02
    x[2,17]   findWorstP[2,1]  2.0358280339022511e-02
    x[2,18]   allocateEach[18]  1
    x[2,18]   findWorstP[1,2]  -7.9836233367451381e-02
    x[2,18]   findWorstP[2,1]  1.3977800586199967e-02
    x[2,19]   allocateEach[19]  1
    x[2,19]   findWorstP[1,2]  -8.0472721330087815e-02
    x[2,19]   findWorstP[2,1]  0.0522500978763478
    x[2,20]   allocateEach[20]  1
    x[2,20]   findWorstP[1,2]  -7.4228258345303319e-02
    x[2,20]   findWorstP[2,1]  5.1086162929730089e-02
    MARKER    'MARKER'                 'INTEND'
RHS
    RHS1      allocateEach[1]  1
    RHS1      allocateEach[2]  1
    RHS1      allocateEach[3]  1
    RHS1      allocateEach[4]  1
    RHS1      allocateEach[5]  1
    RHS1      allocateEach[6]  1
    RHS1      allocateEach[7]  1
    RHS1      allocateEach[8]  1
    RHS1      allocateEach[9]  1
    RHS1      allocateEach[10]  1
    RHS1      allocateEach[11]  1
    RHS1      allocateEach[12]  1
    RHS1      allocateEach[13]  1
    RHS1      allocateEach[14]  1
    RHS1      allocateEach[15]  1
    RHS1      allocateEach[16]  1
    RHS1      allocateEach[17]  1
    RHS1      allocateEach[18]  1
    RHS1      allocateEach[19]  1
    RHS1      allocateEach[20]  1
    RHS1      allocateAllCash  1
BOUNDS
 UP BND1      z         1
 MI BND1      cashProportion[1]
 UP BND1      cashProportion[1]  1
 MI BND1      cashProportion[2]
 UP BND1      cashProportion[2]  1
 BV BND1      x[1,1]  
 BV BND1      x[1,2]  
 BV BND1      x[1,3]  
 BV BND1      x[1,4]  
 BV BND1      x[1,5]  
 BV BND1      x[1,6]  
 BV BND1      x[1,7]  
 BV BND1      x[1,8]  
 BV BND1      x[1,9]  
 BV BND1      x[1,10] 
 BV BND1      x[1,11] 
 BV BND1      x[1,12] 
 BV BND1      x[1,13] 
 BV BND1      x[1,14] 
 BV BND1      x[1,15] 
 BV BND1      x[1,16] 
 BV BND1      x[1,17] 
 BV BND1      x[1,18] 
 BV BND1      x[1,19] 
 BV BND1      x[1,20] 
 BV BND1      x[2,1]  
 BV BND1      x[2,2]  
 BV BND1      x[2,3]  
 BV BND1      x[2,4]  
 BV BND1      x[2,5]  
 BV BND1      x[2,6]  
 BV BND1      x[2,7]  
 BV BND1      x[2,8]  
 BV BND1      x[2,9]  
 BV BND1      x[2,10] 
 BV BND1      x[2,11] 
 BV BND1      x[2,12] 
 BV BND1      x[2,13] 
 BV BND1      x[2,14] 
 BV BND1      x[2,15] 
 BV BND1      x[2,16] 
 BV BND1      x[2,17] 
 BV BND1      x[2,18] 
 BV BND1      x[2,19] 
 BV BND1      x[2,20] 
ENDATA
